1111100 AB red
305 328 351 373 391 409 427 445 464
1111100 AB
486 507 529 551 574 596 619 642 665 687 710 732 753 774 795 810 825 840 855 871 900 1126 1148 1171 1194 1216 1239 1261 1283 1305 1326 1347 1368 1409 10 50 290
1111100 AB green
910 939 968 997 1025 1054 1082 1104
1111100 BA
330 472 490 509 531 552 574 595 618 640 663 686 709 731 754 776 797 818 839 854 869 884 899 915 945 1170 1191 1214 1237 1259 1281 1301 1323 1345 1366 1387 1408 9 50 90
1111100 BA red
345 368 391 413 433 452
1111100 BA green
975 1004 1033 1062 1090 1119 1147 1168
0000011 AB
331 369 407 450 492 535 577 620 663 705 748 790 833 861 889 918 946 974 1016 1059 1087 1115 1144 1186 1228 1269 1306 1344 1381 1419 16 54 293
0000011 BA
330 368 406 446 490 532 575 617 660 703 745 788 830 873 901 929 958 986 1014 1056 1099 1127 1155 1184 1226 1268 1306 1343 1381 1418 16 53 91
